c A SAT instance generated from a 3-CNF formula that had 18 clauses and 8 variables
p cnf 8 18
-8 -4 2 0
-2 4 -8 0
-3 1 6 0
2 1 -3 0
4 2 -5 0
6 7 4 0
-1 -6 -8 0
7 -3 4 0
-5 6 8 0
4 -1 -3 0
1 -6 -2 0
2 -4 3 0
4 -7 8 0
-6 4 1 0
-5 -1 2 0
-4 -3 -1 0
-2 -5 1 0
2 1 5 0
